(declare-const i_init Int)
(declare-const j_init Int)
(declare-const k_init Int)
(declare-const n_init Int)
(declare-const c_0 Int)
(declare-const c_1 Int)
(declare-const c_2 Int)
(declare-const c_3 Int)
(declare-const c_4 Int)
(declare-const c_5 Int)
(declare-const c_6 Int)
(declare-const c_7 Int)
(declare-const c_8 Int)
(declare-const c_9 Int)
(declare-const c_10 Int)
(declare-const c_11 Int)
(declare-const c_12 Int)
(declare-const c_13 Int)
(declare-const c_14 Int)
(declare-const c_15 Int)
(declare-const c_16 Int)
(declare-const c_17 Int)
(declare-const c_18 Int)
(declare-const c_19 Int)
(declare-const c_20 Int)
(declare-const c_21 Int)
(declare-const c_22 Int)
(declare-const c_23 Int)
(declare-const c_24 Int)
(declare-const c_25 Int)
(declare-const c_26 Int)
(declare-const c_27 Int)
(declare-const c_28 Int)
(declare-const c_29 Int)
(declare-const c_30 Int)
(declare-const c_31 Int)
(declare-const c_32 Int)
(declare-const c_33 Int)
(declare-const c_34 Int)
(declare-const c_35 Int)
(declare-const c_36 Int)
(declare-const c_37 Int)
(declare-const c_38 Int)
(declare-const c_39 Int)
(declare-const c_40 Int)
(declare-const c_41 Int)
(declare-const c_42 Int)
(declare-const c_43 Int)
(declare-const c_44 Int)
(assert (< c_0 0))
(assert (and (>= (+ (* 1 c_1 ) (* (- 1) i_init ) ) 0) (>= (+ (* (- 1) c_1 ) (* 1 i_init ) ) 0) (>= (+ (* 1 c_2 ) (* (- 1) j_init ) ) 0) (>= (+ (* (- 1) c_2 ) (* 1 j_init ) ) 0) (>= (+ (* 1 c_3 ) (* (- 1) k_init ) ) 0) (>= (+ (* (- 1) c_3 ) (* 1 k_init ) ) 0) (>= (+ (* 1 c_4 ) (* (- 1) n_init ) ) 0) (>= (+ (* (- 1) c_4 ) (* 1 n_init ) ) 0) ))
(assert (forall ((i Real) (j Real) (k Real) (n Real) ) (=> (and (>= (+ (* (- 1) 1) (* (- 1) c_25 ) (* (- 1) c_27 j ) (* (- 1) c_28 k ) (* (- 1) c_29 n ) ) 0) (>= (+ (* (- 1) 1) (* 1 k ) ) 0) (>= (+ (* 1 c_1 ) (* (- 1) i ) ) 0) (>= (+ (* (- 1) c_1 ) (* 1 i ) ) 0) (>= (+ (* 1 c_2 ) (* (- 1) j ) ) 0) (>= (+ (* (- 1) c_2 ) (* 1 j ) ) 0) (>= (+ (* 1 c_3 ) (* (- 1) k ) ) 0) (>= (+ (* (- 1) c_3 ) (* 1 k ) ) 0) (>= (+ (* 1 c_4 ) (* (- 1) n ) ) 0) (>= (+ (* (- 1) c_4 ) (* 1 n ) ) 0) ) (>= (+ (* 1 c_35 ) (* 1 c_37 j ) (* 1 c_38 k ) (* 1 c_39 n ) ) 0) )))
(assert (forall ((i Real) (j Real) (k Real) (n Real) ) (=> (and (>= (+ (* (- 1) 1) (* (- 1) c_25 ) (* (- 1) c_27 j ) (* (- 1) c_28 k ) (* (- 1) c_29 n ) ) 0) (>= (+ (* (- 1) 1) (* 1 k ) ) 0) (>= (+ (* 1 c_1 ) (* (- 1) i ) ) 0) (>= (+ (* (- 1) c_1 ) (* 1 i ) ) 0) (>= (+ (* 1 c_2 ) (* (- 1) j ) ) 0) (>= (+ (* (- 1) c_2 ) (* 1 j ) ) 0) (>= (+ (* 1 c_3 ) (* (- 1) k ) ) 0) (>= (+ (* (- 1) c_3 ) (* 1 k ) ) 0) (>= (+ (* 1 c_4 ) (* (- 1) n ) ) 0) (>= (+ (* (- 1) c_4 ) (* 1 n ) ) 0) ) (>= (+ (* 1 c_40 ) (* 1 c_42 j ) (* 1 c_43 k ) (* 1 c_44 n ) ) 0) )))
(assert (forall ((i Real) (j Real) (k Real) (n Real) ) (=> (and (>= (+ (* (- 1) 1) (* (- 1) c_30 ) (* (- 1) c_32 j ) (* (- 1) c_33 k ) (* (- 1) c_34 n ) ) 0) (>= (+ (* (- 1) 1) (* 1 k ) ) 0) (>= (+ (* 1 c_1 ) (* (- 1) i ) ) 0) (>= (+ (* (- 1) c_1 ) (* 1 i ) ) 0) (>= (+ (* 1 c_2 ) (* (- 1) j ) ) 0) (>= (+ (* (- 1) c_2 ) (* 1 j ) ) 0) (>= (+ (* 1 c_3 ) (* (- 1) k ) ) 0) (>= (+ (* (- 1) c_3 ) (* 1 k ) ) 0) (>= (+ (* 1 c_4 ) (* (- 1) n ) ) 0) (>= (+ (* (- 1) c_4 ) (* 1 n ) ) 0) ) (>= (+ (* 1 c_35 ) (* 1 c_37 j ) (* 1 c_38 k ) (* 1 c_39 n ) ) 0) )))
(assert (forall ((i Real) (j Real) (k Real) (n Real) ) (=> (and (>= (+ (* (- 1) 1) (* (- 1) c_30 ) (* (- 1) c_32 j ) (* (- 1) c_33 k ) (* (- 1) c_34 n ) ) 0) (>= (+ (* (- 1) 1) (* 1 k ) ) 0) (>= (+ (* 1 c_1 ) (* (- 1) i ) ) 0) (>= (+ (* (- 1) c_1 ) (* 1 i ) ) 0) (>= (+ (* 1 c_2 ) (* (- 1) j ) ) 0) (>= (+ (* (- 1) c_2 ) (* 1 j ) ) 0) (>= (+ (* 1 c_3 ) (* (- 1) k ) ) 0) (>= (+ (* (- 1) c_3 ) (* 1 k ) ) 0) (>= (+ (* 1 c_4 ) (* (- 1) n ) ) 0) (>= (+ (* (- 1) c_4 ) (* 1 n ) ) 0) ) (>= (+ (* 1 c_40 ) (* 1 c_42 j ) (* 1 c_43 k ) (* 1 c_44 n ) ) 0) )))
(assert (forall ((i Real) (j Real) (k Real) (n Real) ) (=> (and (>= (* (- 1) k ) 0) (>= (+ (* 1 c_1 ) (* (- 1) i ) ) 0) (>= (+ (* (- 1) c_1 ) (* 1 i ) ) 0) (>= (+ (* 1 c_2 ) (* (- 1) j ) ) 0) (>= (+ (* (- 1) c_2 ) (* 1 j ) ) 0) (>= (+ (* 1 c_3 ) (* (- 1) k ) ) 0) (>= (+ (* (- 1) c_3 ) (* 1 k ) ) 0) (>= (+ (* 1 c_4 ) (* (- 1) n ) ) 0) (>= (+ (* (- 1) c_4 ) (* 1 n ) ) 0) ) (>= (* 1 c_0 ) 0) )))
(assert (forall ((i Real) (j Real) (k Real) (n Real) ) (=> (and (>= (+ (* (- 1) 1) (* (- 1) c_5 ) (* (- 1) c_6 i ) (* (- 1) c_7 j ) (* (- 1) c_7 k ) (* (- 1) c_8 k ) (* (- 1) c_9 n ) ) 0) (>= (+ (* 1 i ) (* (- 1) j ) ) 0) (>= (+ (* 1 c_5 ) (* 1 c_6 i ) (* 1 c_7 j ) (* 1 c_8 k ) (* 1 c_9 n ) ) 0) (>= (+ (* 1 c_10 ) (* 1 c_11 i ) (* 1 c_12 j ) (* 1 c_13 k ) (* 1 c_14 n ) ) 0) ) (>= (+ (* 1 c_15 ) (* 1 c_16 i ) (* 1 c_17 j ) (* 1 c_17 k ) (* 1 c_18 k ) (* 1 c_19 n ) ) 0) )))
(assert (forall ((i Real) (j Real) (k Real) (n Real) ) (=> (and (>= (+ (* (- 1) 1) (* (- 1) c_5 ) (* (- 1) c_6 i ) (* (- 1) c_7 j ) (* (- 1) c_7 k ) (* (- 1) c_8 k ) (* (- 1) c_9 n ) ) 0) (>= (+ (* 1 i ) (* (- 1) j ) ) 0) (>= (+ (* 1 c_5 ) (* 1 c_6 i ) (* 1 c_7 j ) (* 1 c_8 k ) (* 1 c_9 n ) ) 0) (>= (+ (* 1 c_10 ) (* 1 c_11 i ) (* 1 c_12 j ) (* 1 c_13 k ) (* 1 c_14 n ) ) 0) ) (>= (+ (* 1 c_20 ) (* 1 c_21 i ) (* 1 c_22 j ) (* 1 c_22 k ) (* 1 c_23 k ) (* 1 c_24 n ) ) 0) )))
(assert (forall ((i Real) (j Real) (k Real) (n Real) ) (=> (and (>= (+ (* (- 1) 1) (* (- 1) c_10 ) (* (- 1) c_11 i ) (* (- 1) c_12 j ) (* (- 1) c_12 k ) (* (- 1) c_13 k ) (* (- 1) c_14 n ) ) 0) (>= (+ (* 1 i ) (* (- 1) j ) ) 0) (>= (+ (* 1 c_5 ) (* 1 c_6 i ) (* 1 c_7 j ) (* 1 c_8 k ) (* 1 c_9 n ) ) 0) (>= (+ (* 1 c_10 ) (* 1 c_11 i ) (* 1 c_12 j ) (* 1 c_13 k ) (* 1 c_14 n ) ) 0) ) (>= (+ (* 1 c_15 ) (* 1 c_16 i ) (* 1 c_17 j ) (* 1 c_17 k ) (* 1 c_18 k ) (* 1 c_19 n ) ) 0) )))
(assert (forall ((i Real) (j Real) (k Real) (n Real) ) (=> (and (>= (+ (* (- 1) 1) (* (- 1) c_10 ) (* (- 1) c_11 i ) (* (- 1) c_12 j ) (* (- 1) c_12 k ) (* (- 1) c_13 k ) (* (- 1) c_14 n ) ) 0) (>= (+ (* 1 i ) (* (- 1) j ) ) 0) (>= (+ (* 1 c_5 ) (* 1 c_6 i ) (* 1 c_7 j ) (* 1 c_8 k ) (* 1 c_9 n ) ) 0) (>= (+ (* 1 c_10 ) (* 1 c_11 i ) (* 1 c_12 j ) (* 1 c_13 k ) (* 1 c_14 n ) ) 0) ) (>= (+ (* 1 c_20 ) (* 1 c_21 i ) (* 1 c_22 j ) (* 1 c_22 k ) (* 1 c_23 k ) (* 1 c_24 n ) ) 0) )))
(assert (forall ((i Real) (j Real) (k Real) (n Real) ) (=> (and (>= (+ (* (- 1) 1) (* (- 1) c_5 ) (* (- 1) c_6 i ) (* (- 1) c_7 j ) (* (- 1) c_7 k ) (* (- 1) c_8 k ) (* (- 1) c_9 n ) ) 0) (>= (+ (* 1 i ) (* (- 1) j ) ) 0) (>= (+ (* 1 c_15 ) (* 1 c_16 i ) (* 1 c_17 j ) (* 1 c_18 k ) (* 1 c_19 n ) ) 0) (>= (+ (* 1 c_20 ) (* 1 c_21 i ) (* 1 c_22 j ) (* 1 c_23 k ) (* 1 c_24 n ) ) 0) ) (>= (+ (* 1 c_15 ) (* 1 c_16 i ) (* 1 c_17 j ) (* 1 c_17 k ) (* 1 c_18 k ) (* 1 c_19 n ) ) 0) )))
(assert (forall ((i Real) (j Real) (k Real) (n Real) ) (=> (and (>= (+ (* (- 1) 1) (* (- 1) c_5 ) (* (- 1) c_6 i ) (* (- 1) c_7 j ) (* (- 1) c_7 k ) (* (- 1) c_8 k ) (* (- 1) c_9 n ) ) 0) (>= (+ (* 1 i ) (* (- 1) j ) ) 0) (>= (+ (* 1 c_15 ) (* 1 c_16 i ) (* 1 c_17 j ) (* 1 c_18 k ) (* 1 c_19 n ) ) 0) (>= (+ (* 1 c_20 ) (* 1 c_21 i ) (* 1 c_22 j ) (* 1 c_23 k ) (* 1 c_24 n ) ) 0) ) (>= (+ (* 1 c_20 ) (* 1 c_21 i ) (* 1 c_22 j ) (* 1 c_22 k ) (* 1 c_23 k ) (* 1 c_24 n ) ) 0) )))
(assert (forall ((i Real) (j Real) (k Real) (n Real) ) (=> (and (>= (+ (* (- 1) 1) (* (- 1) c_10 ) (* (- 1) c_11 i ) (* (- 1) c_12 j ) (* (- 1) c_12 k ) (* (- 1) c_13 k ) (* (- 1) c_14 n ) ) 0) (>= (+ (* 1 i ) (* (- 1) j ) ) 0) (>= (+ (* 1 c_15 ) (* 1 c_16 i ) (* 1 c_17 j ) (* 1 c_18 k ) (* 1 c_19 n ) ) 0) (>= (+ (* 1 c_20 ) (* 1 c_21 i ) (* 1 c_22 j ) (* 1 c_23 k ) (* 1 c_24 n ) ) 0) ) (>= (+ (* 1 c_15 ) (* 1 c_16 i ) (* 1 c_17 j ) (* 1 c_17 k ) (* 1 c_18 k ) (* 1 c_19 n ) ) 0) )))
(assert (forall ((i Real) (j Real) (k Real) (n Real) ) (=> (and (>= (+ (* (- 1) 1) (* (- 1) c_10 ) (* (- 1) c_11 i ) (* (- 1) c_12 j ) (* (- 1) c_12 k ) (* (- 1) c_13 k ) (* (- 1) c_14 n ) ) 0) (>= (+ (* 1 i ) (* (- 1) j ) ) 0) (>= (+ (* 1 c_15 ) (* 1 c_16 i ) (* 1 c_17 j ) (* 1 c_18 k ) (* 1 c_19 n ) ) 0) (>= (+ (* 1 c_20 ) (* 1 c_21 i ) (* 1 c_22 j ) (* 1 c_23 k ) (* 1 c_24 n ) ) 0) ) (>= (+ (* 1 c_20 ) (* 1 c_21 i ) (* 1 c_22 j ) (* 1 c_22 k ) (* 1 c_23 k ) (* 1 c_24 n ) ) 0) )))
(assert (forall ((i Real) (j Real) (k Real) (n Real) ) (=> (and (>= (+ (* (- 1) 1) (* (- 1) c_25 ) (* (- 1) c_26 ) (* (- 1) c_26 i ) (* (- 1) c_27 j ) (* (- 1) c_28 k ) (* (- 1) c_29 n ) ) 0) (>= (+ (* (- 1) 1) (* (- 1) i ) (* 1 j ) ) 0) (>= (+ (* 1 c_5 ) (* 1 c_6 i ) (* 1 c_7 j ) (* 1 c_8 k ) (* 1 c_9 n ) ) 0) (>= (+ (* 1 c_10 ) (* 1 c_11 i ) (* 1 c_12 j ) (* 1 c_13 k ) (* 1 c_14 n ) ) 0) ) (>= (+ (* 1 c_35 ) (* 1 c_36 ) (* 1 c_36 i ) (* 1 c_37 j ) (* 1 c_38 k ) (* 1 c_39 n ) ) 0) )))
(assert (forall ((i Real) (j Real) (k Real) (n Real) ) (=> (and (>= (+ (* (- 1) 1) (* (- 1) c_25 ) (* (- 1) c_26 ) (* (- 1) c_26 i ) (* (- 1) c_27 j ) (* (- 1) c_28 k ) (* (- 1) c_29 n ) ) 0) (>= (+ (* (- 1) 1) (* (- 1) i ) (* 1 j ) ) 0) (>= (+ (* 1 c_5 ) (* 1 c_6 i ) (* 1 c_7 j ) (* 1 c_8 k ) (* 1 c_9 n ) ) 0) (>= (+ (* 1 c_10 ) (* 1 c_11 i ) (* 1 c_12 j ) (* 1 c_13 k ) (* 1 c_14 n ) ) 0) ) (>= (+ (* 1 c_40 ) (* 1 c_41 ) (* 1 c_41 i ) (* 1 c_42 j ) (* 1 c_43 k ) (* 1 c_44 n ) ) 0) )))
(assert (forall ((i Real) (j Real) (k Real) (n Real) ) (=> (and (>= (+ (* (- 1) 1) (* (- 1) c_30 ) (* (- 1) c_31 ) (* (- 1) c_31 i ) (* (- 1) c_32 j ) (* (- 1) c_33 k ) (* (- 1) c_34 n ) ) 0) (>= (+ (* (- 1) 1) (* (- 1) i ) (* 1 j ) ) 0) (>= (+ (* 1 c_5 ) (* 1 c_6 i ) (* 1 c_7 j ) (* 1 c_8 k ) (* 1 c_9 n ) ) 0) (>= (+ (* 1 c_10 ) (* 1 c_11 i ) (* 1 c_12 j ) (* 1 c_13 k ) (* 1 c_14 n ) ) 0) ) (>= (+ (* 1 c_35 ) (* 1 c_36 ) (* 1 c_36 i ) (* 1 c_37 j ) (* 1 c_38 k ) (* 1 c_39 n ) ) 0) )))
(assert (forall ((i Real) (j Real) (k Real) (n Real) ) (=> (and (>= (+ (* (- 1) 1) (* (- 1) c_30 ) (* (- 1) c_31 ) (* (- 1) c_31 i ) (* (- 1) c_32 j ) (* (- 1) c_33 k ) (* (- 1) c_34 n ) ) 0) (>= (+ (* (- 1) 1) (* (- 1) i ) (* 1 j ) ) 0) (>= (+ (* 1 c_5 ) (* 1 c_6 i ) (* 1 c_7 j ) (* 1 c_8 k ) (* 1 c_9 n ) ) 0) (>= (+ (* 1 c_10 ) (* 1 c_11 i ) (* 1 c_12 j ) (* 1 c_13 k ) (* 1 c_14 n ) ) 0) ) (>= (+ (* 1 c_40 ) (* 1 c_41 ) (* 1 c_41 i ) (* 1 c_42 j ) (* 1 c_43 k ) (* 1 c_44 n ) ) 0) )))
(assert (forall ((i Real) (j Real) (k Real) (n Real) ) (=> (and (>= (+ (* (- 1) 1) (* (- 1) c_25 ) (* (- 1) c_26 ) (* (- 1) c_26 i ) (* (- 1) c_27 j ) (* (- 1) c_28 k ) (* (- 1) c_29 n ) ) 0) (>= (+ (* (- 1) 1) (* (- 1) i ) (* 1 j ) ) 0) (>= (+ (* 1 c_15 ) (* 1 c_16 i ) (* 1 c_17 j ) (* 1 c_18 k ) (* 1 c_19 n ) ) 0) (>= (+ (* 1 c_20 ) (* 1 c_21 i ) (* 1 c_22 j ) (* 1 c_23 k ) (* 1 c_24 n ) ) 0) ) (>= (+ (* 1 c_35 ) (* 1 c_36 ) (* 1 c_36 i ) (* 1 c_37 j ) (* 1 c_38 k ) (* 1 c_39 n ) ) 0) )))
(assert (forall ((i Real) (j Real) (k Real) (n Real) ) (=> (and (>= (+ (* (- 1) 1) (* (- 1) c_25 ) (* (- 1) c_26 ) (* (- 1) c_26 i ) (* (- 1) c_27 j ) (* (- 1) c_28 k ) (* (- 1) c_29 n ) ) 0) (>= (+ (* (- 1) 1) (* (- 1) i ) (* 1 j ) ) 0) (>= (+ (* 1 c_15 ) (* 1 c_16 i ) (* 1 c_17 j ) (* 1 c_18 k ) (* 1 c_19 n ) ) 0) (>= (+ (* 1 c_20 ) (* 1 c_21 i ) (* 1 c_22 j ) (* 1 c_23 k ) (* 1 c_24 n ) ) 0) ) (>= (+ (* 1 c_40 ) (* 1 c_41 ) (* 1 c_41 i ) (* 1 c_42 j ) (* 1 c_43 k ) (* 1 c_44 n ) ) 0) )))
(assert (forall ((i Real) (j Real) (k Real) (n Real) ) (=> (and (>= (+ (* (- 1) 1) (* (- 1) c_30 ) (* (- 1) c_31 ) (* (- 1) c_31 i ) (* (- 1) c_32 j ) (* (- 1) c_33 k ) (* (- 1) c_34 n ) ) 0) (>= (+ (* (- 1) 1) (* (- 1) i ) (* 1 j ) ) 0) (>= (+ (* 1 c_15 ) (* 1 c_16 i ) (* 1 c_17 j ) (* 1 c_18 k ) (* 1 c_19 n ) ) 0) (>= (+ (* 1 c_20 ) (* 1 c_21 i ) (* 1 c_22 j ) (* 1 c_23 k ) (* 1 c_24 n ) ) 0) ) (>= (+ (* 1 c_35 ) (* 1 c_36 ) (* 1 c_36 i ) (* 1 c_37 j ) (* 1 c_38 k ) (* 1 c_39 n ) ) 0) )))
(assert (forall ((i Real) (j Real) (k Real) (n Real) ) (=> (and (>= (+ (* (- 1) 1) (* (- 1) c_30 ) (* (- 1) c_31 ) (* (- 1) c_31 i ) (* (- 1) c_32 j ) (* (- 1) c_33 k ) (* (- 1) c_34 n ) ) 0) (>= (+ (* (- 1) 1) (* (- 1) i ) (* 1 j ) ) 0) (>= (+ (* 1 c_15 ) (* 1 c_16 i ) (* 1 c_17 j ) (* 1 c_18 k ) (* 1 c_19 n ) ) 0) (>= (+ (* 1 c_20 ) (* 1 c_21 i ) (* 1 c_22 j ) (* 1 c_23 k ) (* 1 c_24 n ) ) 0) ) (>= (+ (* 1 c_40 ) (* 1 c_41 ) (* 1 c_41 i ) (* 1 c_42 j ) (* 1 c_43 k ) (* 1 c_44 n ) ) 0) )))
(assert (forall ((i Real) (j Real) (k Real) (n Real) ) (=> (and (>= (+ (* (- 1) 1) (* (- 1) c_5 ) (* (- 1) c_6 i ) (* (- 1) c_8 k ) (* (- 1) c_9 n ) ) 0) (>= (+ (* (- 1) 1) (* (- 1) i ) (* 1 n ) ) 0) (>= (+ (* 1 c_25 ) (* 1 c_26 i ) (* 1 c_27 j ) (* 1 c_28 k ) (* 1 c_29 n ) ) 0) (>= (+ (* 1 c_30 ) (* 1 c_31 i ) (* 1 c_32 j ) (* 1 c_33 k ) (* 1 c_34 n ) ) 0) ) (>= (+ (* 1 c_15 ) (* 1 c_16 i ) (* 1 c_18 k ) (* 1 c_19 n ) ) 0) )))
(assert (forall ((i Real) (j Real) (k Real) (n Real) ) (=> (and (>= (+ (* (- 1) 1) (* (- 1) c_5 ) (* (- 1) c_6 i ) (* (- 1) c_8 k ) (* (- 1) c_9 n ) ) 0) (>= (+ (* (- 1) 1) (* (- 1) i ) (* 1 n ) ) 0) (>= (+ (* 1 c_25 ) (* 1 c_26 i ) (* 1 c_27 j ) (* 1 c_28 k ) (* 1 c_29 n ) ) 0) (>= (+ (* 1 c_30 ) (* 1 c_31 i ) (* 1 c_32 j ) (* 1 c_33 k ) (* 1 c_34 n ) ) 0) ) (>= (+ (* 1 c_20 ) (* 1 c_21 i ) (* 1 c_23 k ) (* 1 c_24 n ) ) 0) )))
(assert (forall ((i Real) (j Real) (k Real) (n Real) ) (=> (and (>= (+ (* (- 1) 1) (* (- 1) c_10 ) (* (- 1) c_11 i ) (* (- 1) c_13 k ) (* (- 1) c_14 n ) ) 0) (>= (+ (* (- 1) 1) (* (- 1) i ) (* 1 n ) ) 0) (>= (+ (* 1 c_25 ) (* 1 c_26 i ) (* 1 c_27 j ) (* 1 c_28 k ) (* 1 c_29 n ) ) 0) (>= (+ (* 1 c_30 ) (* 1 c_31 i ) (* 1 c_32 j ) (* 1 c_33 k ) (* 1 c_34 n ) ) 0) ) (>= (+ (* 1 c_15 ) (* 1 c_16 i ) (* 1 c_18 k ) (* 1 c_19 n ) ) 0) )))
(assert (forall ((i Real) (j Real) (k Real) (n Real) ) (=> (and (>= (+ (* (- 1) 1) (* (- 1) c_10 ) (* (- 1) c_11 i ) (* (- 1) c_13 k ) (* (- 1) c_14 n ) ) 0) (>= (+ (* (- 1) 1) (* (- 1) i ) (* 1 n ) ) 0) (>= (+ (* 1 c_25 ) (* 1 c_26 i ) (* 1 c_27 j ) (* 1 c_28 k ) (* 1 c_29 n ) ) 0) (>= (+ (* 1 c_30 ) (* 1 c_31 i ) (* 1 c_32 j ) (* 1 c_33 k ) (* 1 c_34 n ) ) 0) ) (>= (+ (* 1 c_20 ) (* 1 c_21 i ) (* 1 c_23 k ) (* 1 c_24 n ) ) 0) )))
(assert (forall ((i Real) (j Real) (k Real) (n Real) ) (=> (and (>= (+ (* (- 1) 1) (* (- 1) c_5 ) (* (- 1) c_6 i ) (* (- 1) c_8 k ) (* (- 1) c_9 n ) ) 0) (>= (+ (* (- 1) 1) (* (- 1) i ) (* 1 n ) ) 0) (>= (+ (* 1 c_35 ) (* 1 c_36 i ) (* 1 c_37 j ) (* 1 c_38 k ) (* 1 c_39 n ) ) 0) (>= (+ (* 1 c_40 ) (* 1 c_41 i ) (* 1 c_42 j ) (* 1 c_43 k ) (* 1 c_44 n ) ) 0) ) (>= (+ (* 1 c_15 ) (* 1 c_16 i ) (* 1 c_18 k ) (* 1 c_19 n ) ) 0) )))
(assert (forall ((i Real) (j Real) (k Real) (n Real) ) (=> (and (>= (+ (* (- 1) 1) (* (- 1) c_5 ) (* (- 1) c_6 i ) (* (- 1) c_8 k ) (* (- 1) c_9 n ) ) 0) (>= (+ (* (- 1) 1) (* (- 1) i ) (* 1 n ) ) 0) (>= (+ (* 1 c_35 ) (* 1 c_36 i ) (* 1 c_37 j ) (* 1 c_38 k ) (* 1 c_39 n ) ) 0) (>= (+ (* 1 c_40 ) (* 1 c_41 i ) (* 1 c_42 j ) (* 1 c_43 k ) (* 1 c_44 n ) ) 0) ) (>= (+ (* 1 c_20 ) (* 1 c_21 i ) (* 1 c_23 k ) (* 1 c_24 n ) ) 0) )))
(assert (forall ((i Real) (j Real) (k Real) (n Real) ) (=> (and (>= (+ (* (- 1) 1) (* (- 1) c_10 ) (* (- 1) c_11 i ) (* (- 1) c_13 k ) (* (- 1) c_14 n ) ) 0) (>= (+ (* (- 1) 1) (* (- 1) i ) (* 1 n ) ) 0) (>= (+ (* 1 c_35 ) (* 1 c_36 i ) (* 1 c_37 j ) (* 1 c_38 k ) (* 1 c_39 n ) ) 0) (>= (+ (* 1 c_40 ) (* 1 c_41 i ) (* 1 c_42 j ) (* 1 c_43 k ) (* 1 c_44 n ) ) 0) ) (>= (+ (* 1 c_15 ) (* 1 c_16 i ) (* 1 c_18 k ) (* 1 c_19 n ) ) 0) )))
(assert (forall ((i Real) (j Real) (k Real) (n Real) ) (=> (and (>= (+ (* (- 1) 1) (* (- 1) c_10 ) (* (- 1) c_11 i ) (* (- 1) c_13 k ) (* (- 1) c_14 n ) ) 0) (>= (+ (* (- 1) 1) (* (- 1) i ) (* 1 n ) ) 0) (>= (+ (* 1 c_35 ) (* 1 c_36 i ) (* 1 c_37 j ) (* 1 c_38 k ) (* 1 c_39 n ) ) 0) (>= (+ (* 1 c_40 ) (* 1 c_41 i ) (* 1 c_42 j ) (* 1 c_43 k ) (* 1 c_44 n ) ) 0) ) (>= (+ (* 1 c_20 ) (* 1 c_21 i ) (* 1 c_23 k ) (* 1 c_24 n ) ) 0) )))
(assert (forall ((i Real) (j Real) (k Real) (n Real) ) (=> (and (>= (+ (* 1 i ) (* (- 1) n ) ) 0) (>= (+ (* 1 c_25 ) (* 1 c_26 i ) (* 1 c_27 j ) (* 1 c_28 k ) (* 1 c_29 n ) ) 0) (>= (+ (* 1 c_30 ) (* 1 c_31 i ) (* 1 c_32 j ) (* 1 c_33 k ) (* 1 c_34 n ) ) 0) ) (>= (* 1 c_0 ) 0) )))
(assert (forall ((i Real) (j Real) (k Real) (n Real) ) (=> (and (>= (+ (* 1 i ) (* (- 1) n ) ) 0) (>= (+ (* 1 c_35 ) (* 1 c_36 i ) (* 1 c_37 j ) (* 1 c_38 k ) (* 1 c_39 n ) ) 0) (>= (+ (* 1 c_40 ) (* 1 c_41 i ) (* 1 c_42 j ) (* 1 c_43 k ) (* 1 c_44 n ) ) 0) ) (>= (* 1 c_0 ) 0) )))
(check-sat)
(get-model)

